
Gurobi 9.1.2 (win64, Java) logging started Sun Nov 14 00:27:44 2021

Academic license - for non-commercial use only - expires 2022-10-30
Gurobi Optimizer version 9.1.2 build v9.1.2rc0 (win64)
Thread count: 6 physical cores, 12 logical processors, using up to 12 threads
Optimize a model with 60 rows, 800 columns and 1600 nonzeros
Model fingerprint: 0x265a70a9
Variable types: 0 continuous, 800 integer (800 binary)
Coefficient statistics:
  Matrix range     [1e+00, 1e+03]
  Objective range  [4e+02, 1e+03]
  Bounds range     [1e+00, 1e+00]
  RHS range        [1e+00, 1e+03]
Found heuristic solution: objective 16462.000000
Presolve removed 3 rows and 400 columns
Presolve time: 0.02s
Presolved: 57 rows, 400 columns, 797 nonzeros
Variable types: 0 continuous, 400 integer (400 binary)
Presolve removed 0 rows and 1 columns
Presolved: 57 rows, 399 columns, 796 nonzeros


Root relaxation: objective 2.155055e+04, 213 iterations, 0.00 seconds

    Nodes    |    Current Node    |     Objective Bounds      |     Work
 Expl Unexpl |  Obj  Depth IntInf | Incumbent    BestBd   Gap | It/Node Time

     0     0 21550.5520    0   28 16462.0000 21550.5520  30.9%     -    0s
H    0     0                    19348.000000 21550.5520  11.4%     -    0s
H    0     0                    19794.000000 21550.5520  8.87%     -    0s
     0     0 20154.2427    0   24 19794.0000 20154.2427  1.82%     -    0s
H    0     0                    19801.000000 20154.2427  1.78%     -    0s
H    0     0                    19953.000000 20154.2427  1.01%     -    0s
     0     0 20106.4518    0   25 19953.0000 20106.4518  0.77%     -    0s
     0     0 20100.4216    0   24 19953.0000 20100.4216  0.74%     -    0s
     0     0 20100.3526    0   22 19953.0000 20100.3526  0.74%     -    0s
H    0     0                    19991.000000 20100.3526  0.55%     -    1s
     0     0 20072.5300    0   26 19991.0000 20072.5300  0.41%     -    1s
H    0     0                    20018.000000 20072.5300  0.27%     -    1s
     0     0 20070.4678    0   27 20018.0000 20070.4678  0.26%     -    1s
     0     0 20064.2492    0   19 20018.0000 20064.2492  0.23%     -    1s
     0     0 20060.3013    0   14 20018.0000 20060.3013  0.21%     -    1s
     0     0 20056.1805    0   27 20018.0000 20056.1805  0.19%     -    2s
     0     0 20056.1805    0   29 20018.0000 20056.1805  0.19%     -    2s
     0     0 20054.6721    0   24 20018.0000 20054.6721  0.18%     -    2s
     0     0 20054.6721    0   24 20018.0000 20054.6721  0.18%     -    2s
H    0     0                    20050.000000 20054.6721  0.02%     -    2s

Explored 1 nodes (837 simplex iterations) in 2.29 seconds
Thread count was 12 (of 12 available processors)

Solution count 8: 20050 20018 19991 ... 16462

Optimal solution found (tolerance 1.00e-12)
Best objective 2.005000000000e+04, best bound 2.005000000000e+04, gap 0.0000%
